Maximize
F - f1 - f2

Subject to
F - 6y26 - 6y30 - 6y37 - 8y53 - 2y128 - 6y148 - 4y159 - 8y276 - 2y120 - 8y48 - 6y57 - 6y129 - 6y172 - 4y124 - 6y100 - 4y231 - 6y175 = 0
f1 - 0.008324s26 - 0.008324s30 - 0.008324s37 - 0.008324s53 - 0.008324s128 - 0.008324s148 - 0.008324s159 - 0.008324s276 - 0.008324s120 - 0.008324s48 - 0.008324s57 - 0.008324s129 - 0.008324s172 - 0.008324s124 - 0.008324s100 - 0.008324s231 - 0.008324s175  = 0
f2 - 2.12y26 - 1.53y30 - 2.15y37 - 2.57y53 - 2.23y128 - 1.44y148 - 2.51y159 - 1.57y276 - 1.60y120 - 1.65y48 - 0.90y57 - 0.81y129 - 0.96y172 - 0.88y124 - 0.82y100 - 0.99y231 - 0.94y175 = 0

x95x172x1 + x95x231x1 
<= 1
x262x53x1 + x262x128x1 + x262x148x1 + x262x159x1 + x262x172x1 + x262x231x1 
<= 1
x38x128x1 + x38x148x1 + x38x172x1 + x38x231x1 
<= 2
x86x128x1 + x86x148x1 + x86x159x1 + x86x172x1 + x86x231x1 
<= 1
x132x53x1 + x132x128x1 + x132x148x1 + x132x159x1 + x132x172x1 + x132x231x1 
<= 1
x283x53x1 + x283x128x1 + x283x148x1 + x283x159x1 + x283x172x1 + x283x231x1 
<= 1
x99x128x1 + x99x148x1 + x99x159x1 + x99x172x1 + x99x231x1 
<= 1
x267x57x2 + x267x129x2 + x267x124x2 + x267x100x2 + x267x231x2 + x267x175x2 
<= 2
x113x57x2 + x113x129x2 + x113x124x2 + x113x100x2 + x113x231x2 + x113x175x2 
<= 2
x222x57x2 + x222x129x2 + x222x124x2 + x222x100x2 + x222x231x2 + x222x175x2 
<= 2
x4x30x2 + x4x37x2 + x4x276x2 + x4x120x2 + x4x48x2 + x4x57x2 + x4x129x2 + x4x124x2 + x4x100x2 + x4x231x2 + x4x175x2 
<= 1
x266x30x2 + x266x37x2 + x266x276x2 + x266x120x2 + x266x48x2 + x266x57x2 + x266x129x2 + x266x124x2 + x266x100x2 + x266x231x2 + x266x175x2 
<= 1
x86x30x2 + x86x37x2 + x86x276x2 + x86x120x2 + x86x48x2 + x86x57x2 + x86x129x2 + x86x124x2 + x86x100x2 + x86x231x2 + x86x175x2 
<= 1
x95x57x3 + x95x172x3 + x95x175x3 
<= 1
x262x26x3 + x262x30x3 + x262x37x3 + x262x148x3 + x262x159x3 + x262x276x3 + x262x57x3 + x262x172x3 + x262x175x3 
<= 1
x4x26x3 + x4x30x3 + x4x37x3 + x4x148x3 + x4x159x3 + x4x276x3 + x4x57x3 + x4x172x3 + x4x175x3 
<= 1
x132x26x3 + x132x30x3 + x132x37x3 + x132x148x3 + x132x159x3 + x132x276x3 + x132x57x3 + x132x172x3 + x132x175x3 
<= 1
x283x26x3 + x283x30x3 + x283x37x3 + x283x148x3 + x283x159x3 + x283x276x3 + x283x57x3 + x283x172x3 + x283x175x3 
<= 1
x99x30x3 + x99x37x3 + x99x148x3 + x99x159x3 + x99x276x3 + x99x57x3 + x99x172x3 + x99x175x3 
<= 1
x290x26x3 + x290x30x3 + x290x37x3 + x290x148x3 + x290x159x3 + x290x276x3 + x290x57x3 + x290x172x3 + x290x175x3 
<= 2



x262x26x3 + x4x26x3 + x132x26x3 + x283x26x3 + x290x26x3 
- x26x0x3
- x26x57x3 - x26x172x3 - x26x175x3 
= 0


x4x30x2 + x266x30x2 + x86x30x2 
- x30x0x2
- x30x48x2 - x30x57x2 - x30x129x2 - x30x124x2 - x30x100x2 - x30x231x2 - x30x175x2 
= 0
x262x30x3 + x4x30x3 + x132x30x3 + x283x30x3 + x99x30x3 + x290x30x3 
- x30x0x3
- x30x57x3 - x30x172x3 - x30x175x3 
= 0


x4x37x2 + x266x37x2 + x86x37x2 
- x37x0x2
- x37x48x2 - x37x57x2 - x37x129x2 - x37x124x2 - x37x100x2 - x37x231x2 - x37x175x2 
= 0
x262x37x3 + x4x37x3 + x132x37x3 + x283x37x3 + x99x37x3 + x290x37x3 
- x37x0x3
- x37x57x3 - x37x172x3 - x37x175x3 
= 0

x262x53x1 + x132x53x1 + x283x53x1 
- x53x0x1
- x53x172x1 - x53x231x1 
= 0



x262x128x1 + x38x128x1 + x86x128x1 + x132x128x1 + x283x128x1 + x99x128x1 
- x128x0x1
- x128x172x1 - x128x231x1 
= 0



x262x148x1 + x38x148x1 + x86x148x1 + x132x148x1 + x283x148x1 + x99x148x1 
- x148x0x1
- x148x172x1 - x148x231x1 
= 0

x262x148x3 + x4x148x3 + x132x148x3 + x283x148x3 + x99x148x3 + x290x148x3 
- x148x0x3
- x148x57x3 - x148x172x3 - x148x175x3 
= 0

x262x159x1 + x86x159x1 + x132x159x1 + x283x159x1 + x99x159x1 
- x159x0x1
- x159x172x1 - x159x231x1 
= 0

x262x159x3 + x4x159x3 + x132x159x3 + x283x159x3 + x99x159x3 + x290x159x3 
- x159x0x3
- x159x57x3 - x159x172x3 - x159x175x3 
= 0


x4x276x2 + x266x276x2 + x86x276x2 
- x276x0x2
- x276x48x2 - x276x57x2 - x276x129x2 - x276x124x2 - x276x100x2 - x276x231x2 - x276x175x2 
= 0
x262x276x3 + x4x276x3 + x132x276x3 + x283x276x3 + x99x276x3 + x290x276x3 
- x276x0x3
- x276x57x3 - x276x172x3 - x276x175x3 
= 0


x4x120x2 + x266x120x2 + x86x120x2 
- x120x0x2
- x120x48x2 - x120x57x2 - x120x129x2 - x120x124x2 - x120x100x2 - x120x231x2 - x120x175x2 
= 0



x4x48x2 + x266x48x2 + x86x48x2 + x30x48x2 + x37x48x2 + x276x48x2 + x120x48x2 
- x48x0x2
- x48x231x2 - x48x175x2 
= 0



x267x57x2 + x113x57x2 + x222x57x2 + x4x57x2 + x266x57x2 + x86x57x2 + x30x57x2 + x37x57x2 + x276x57x2 + x120x57x2 
- x57x0x2
- x57x124x2 - x57x100x2 - x57x231x2 - x57x175x2 
= 0
x95x57x3 + x262x57x3 + x4x57x3 + x132x57x3 + x283x57x3 + x99x57x3 + x290x57x3 + x26x57x3 + x30x57x3 + x37x57x3 + x148x57x3 + x159x57x3 + x276x57x3 
- x57x0x3
- x57x172x3 - x57x175x3 
= 0


x267x129x2 + x113x129x2 + x222x129x2 + x4x129x2 + x266x129x2 + x86x129x2 + x30x129x2 + x37x129x2 + x276x129x2 + x120x129x2 
- x129x0x2
- x129x124x2 - x129x100x2 - x129x231x2 - x129x175x2 
= 0


x95x172x1 + x262x172x1 + x38x172x1 + x86x172x1 + x132x172x1 + x283x172x1 + x99x172x1 + x53x172x1 + x128x172x1 + x148x172x1 + x159x172x1 
- x172x0x1
- x172x231x1 
= 0

x95x172x3 + x262x172x3 + x4x172x3 + x132x172x3 + x283x172x3 + x99x172x3 + x290x172x3 + x26x172x3 + x30x172x3 + x37x172x3 + x148x172x3 + x159x172x3 + x276x172x3 + x57x172x3 
- x172x0x3
- x172x175x3 
= 0


x267x124x2 + x113x124x2 + x222x124x2 + x4x124x2 + x266x124x2 + x86x124x2 + x30x124x2 + x37x124x2 + x276x124x2 + x120x124x2 + x57x124x2 + x129x124x2 
- x124x0x2
- x124x100x2 - x124x231x2 - x124x175x2 
= 0



x267x100x2 + x113x100x2 + x222x100x2 + x4x100x2 + x266x100x2 + x86x100x2 + x30x100x2 + x37x100x2 + x276x100x2 + x120x100x2 + x57x100x2 + x129x100x2 + x124x100x2 
- x100x0x2
- x100x175x2 
= 0


x95x231x1 + x262x231x1 + x38x231x1 + x86x231x1 + x132x231x1 + x283x231x1 + x99x231x1 + x53x231x1 + x128x231x1 + x148x231x1 + x159x231x1 + x172x231x1 
- x231x0x1

= 0
x267x231x2 + x113x231x2 + x222x231x2 + x4x231x2 + x266x231x2 + x86x231x2 + x30x231x2 + x37x231x2 + x276x231x2 + x120x231x2 + x48x231x2 + x57x231x2 + x129x231x2 + x124x231x2 
- x231x0x2
- x231x175x2 
= 0



x267x175x2 + x113x175x2 + x222x175x2 + x4x175x2 + x266x175x2 + x86x175x2 + x30x175x2 + x37x175x2 + x276x175x2 + x120x175x2 + x48x175x2 + x57x175x2 + x129x175x2 + x124x175x2 + x100x175x2 + x231x175x2 
- x175x0x2

= 0
x95x175x3 + x262x175x3 + x4x175x3 + x132x175x3 + x283x175x3 + x99x175x3 + x290x175x3 + x26x175x3 + x30x175x3 + x37x175x3 + x148x175x3 + x159x175x3 + x276x175x3 + x57x175x3 + x172x175x3 
- x175x0x3

= 0

2y26 - x262x26x3 - x4x26x3 - x132x26x3 - x283x26x3 - x290x26x3 = 0
1y30 - x4x30x2 - x266x30x2 - x86x30x2 = 0
1y30 - x262x30x3 - x4x30x3 - x132x30x3 - x283x30x3 - x99x30x3 - x290x30x3 = 0
1y37 - x4x37x2 - x266x37x2 - x86x37x2 = 0
1y37 - x262x37x3 - x4x37x3 - x132x37x3 - x283x37x3 - x99x37x3 - x290x37x3 = 0
2y53 - x262x53x1 - x132x53x1 - x283x53x1 = 0
2y128 - x262x128x1 - x38x128x1 - x86x128x1 - x132x128x1 - x283x128x1 - x99x128x1 = 0
1y148 - x262x148x1 - x38x148x1 - x86x148x1 - x132x148x1 - x283x148x1 - x99x148x1 = 0
1y148 - x262x148x3 - x4x148x3 - x132x148x3 - x283x148x3 - x99x148x3 - x290x148x3 = 0
1y159 - x262x159x1 - x86x159x1 - x132x159x1 - x283x159x1 - x99x159x1 = 0
1y159 - x262x159x3 - x4x159x3 - x132x159x3 - x283x159x3 - x99x159x3 - x290x159x3 = 0
1y276 - x4x276x2 - x266x276x2 - x86x276x2 = 0
1y276 - x262x276x3 - x4x276x3 - x132x276x3 - x283x276x3 - x99x276x3 - x290x276x3 = 0
2y120 - x4x120x2 - x266x120x2 - x86x120x2 = 0
2y48 - x4x48x2 - x266x48x2 - x86x48x2 - x30x48x2 - x37x48x2 - x276x48x2 - x120x48x2 = 0
1y57 - x267x57x2 - x113x57x2 - x222x57x2 - x4x57x2 - x266x57x2 - x86x57x2 - x30x57x2 - x37x57x2 - x276x57x2 - x120x57x2 = 0
1y57 - x95x57x3 - x262x57x3 - x4x57x3 - x132x57x3 - x283x57x3 - x99x57x3 - x290x57x3 - x26x57x3 - x30x57x3 - x37x57x3 - x148x57x3 - x159x57x3 - x276x57x3 = 0
2y129 - x267x129x2 - x113x129x2 - x222x129x2 - x4x129x2 - x266x129x2 - x86x129x2 - x30x129x2 - x37x129x2 - x276x129x2 - x120x129x2 = 0
1y172 - x95x172x1 - x262x172x1 - x38x172x1 - x86x172x1 - x132x172x1 - x283x172x1 - x99x172x1 - x53x172x1 - x128x172x1 - x148x172x1 - x159x172x1 = 0
1y172 - x95x172x3 - x262x172x3 - x4x172x3 - x132x172x3 - x283x172x3 - x99x172x3 - x290x172x3 - x26x172x3 - x30x172x3 - x37x172x3 - x148x172x3 - x159x172x3 - x276x172x3 - x57x172x3 = 0
2y124 - x267x124x2 - x113x124x2 - x222x124x2 - x4x124x2 - x266x124x2 - x86x124x2 - x30x124x2 - x37x124x2 - x276x124x2 - x120x124x2 - x57x124x2 - x129x124x2 = 0
2y100 - x267x100x2 - x113x100x2 - x222x100x2 - x4x100x2 - x266x100x2 - x86x100x2 - x30x100x2 - x37x100x2 - x276x100x2 - x120x100x2 - x57x100x2 - x129x100x2 - x124x100x2 = 0
1y231 - x95x231x1 - x262x231x1 - x38x231x1 - x86x231x1 - x132x231x1 - x283x231x1 - x99x231x1 - x53x231x1 - x128x231x1 - x148x231x1 - x159x231x1 - x172x231x1 = 0
1y231 - x267x231x2 - x113x231x2 - x222x231x2 - x4x231x2 - x266x231x2 - x86x231x2 - x30x231x2 - x37x231x2 - x276x231x2 - x120x231x2 - x48x231x2 - x57x231x2 - x129x231x2 - x124x231x2 = 0
1y175 - x267x175x2 - x113x175x2 - x222x175x2 - x4x175x2 - x266x175x2 - x86x175x2 - x30x175x2 - x37x175x2 - x276x175x2 - x120x175x2 - x48x175x2 - x57x175x2 - x129x175x2 - x124x175x2 - x100x175x2 - x231x175x2 = 0
1y175 - x95x175x3 - x262x175x3 - x4x175x3 - x132x175x3 - x283x175x3 - x99x175x3 - x290x175x3 - x26x175x3 - x30x175x3 - x37x175x3 - x148x175x3 - x159x175x3 - x276x175x3 - x57x175x3 - x172x175x3 = 0

s95 - s57 + 7.219145z95z57z3 <= 5.78
s95 - s172 + 7.246439z95z172z1 <= 5.78
s95 - s172 + 7.246439z95z172z3 <= 5.78
s95 - s231 + 7.267150z95z231z1 <= 5.78
s95 - s175 + 7.261523z95z175z3 <= 5.78
s267 - s57 + 7.199840z267z57z2 <= 5.75
s267 - s129 + 7.173373z267z129z2 <= 5.75
s267 - s124 + 7.214806z267z124z2 <= 5.75
s267 - s100 + 7.209227z267z100z2 <= 5.75
s267 - s231 + 7.247818z267z231z2 <= 5.75
s267 - s175 + 7.242161z267z175z2 <= 5.75
s113 - s57 + 7.254806z113z57z2 <= 5.79
s113 - s129 + 7.228432z113z129z2 <= 5.79
s113 - s124 + 7.270046z113z124z2 <= 5.79
s113 - s100 + 7.264646z113z100z2 <= 5.79
s113 - s231 + 7.302943z113z231z2 <= 5.79
s113 - s175 + 7.297456z113z175z2 <= 5.79
s222 - s57 + 7.238454z222z57z2 <= 5.79
s222 - s129 + 7.211901z222z129z2 <= 5.79
s222 - s124 + 7.253081z222z124z2 <= 5.79
s222 - s100 + 7.247287z222z100z2 <= 5.79
s222 - s231 + 7.286208z222z231z2 <= 5.79
s222 - s175 + 7.280351z222z175z2 <= 5.79
s262 - s26 + 6.239792z262z26z3 <= 4.83
s262 - s30 + 6.178238z262z30z3 <= 4.83
s262 - s37 + 6.364802z262z37z3 <= 4.83
s262 - s53 + 6.327243z262z53z1 <= 4.83
s262 - s128 + 6.359938z262z128z1 <= 4.83
s262 - s148 + 6.248643z262z148z1 <= 4.83
s262 - s148 + 6.248643z262z148z3 <= 4.83
s262 - s159 + 6.351700z262z159z1 <= 4.83
s262 - s159 + 6.351700z262z159z3 <= 4.83
s262 - s276 + 6.320778z262z276z3 <= 4.83
s262 - s57 + 6.412776z262z57z3 <= 4.83
s262 - s172 + 6.437045z262z172z1 <= 4.83
s262 - s172 + 6.437045z262z172z3 <= 4.83
s262 - s231 + 6.456507z262z231z1 <= 4.83
s262 - s175 + 6.455866z262z175z3 <= 4.83
s4 - s26 + 6.328255z4z26z3 <= 4.86
s4 - s30 + 6.253486z4z30z2 <= 4.86
s4 - s30 + 6.253486z4z30z3 <= 4.86
s4 - s37 + 6.451290z4z37z2 <= 4.86
s4 - s37 + 6.451290z4z37z3 <= 4.86
s4 - s148 + 6.321238z4z148z3 <= 4.86
s4 - s159 + 6.444608z4z159z3 <= 4.86
s4 - s276 + 6.396214z4z276z2 <= 4.86
s4 - s276 + 6.396214z4z276z3 <= 4.86
s4 - s120 + 6.455791z4z120z2 <= 4.86
s4 - s48 + 6.512640z4z48z2 <= 4.86
s4 - s57 + 6.473752z4z57z2 <= 4.86
s4 - s57 + 6.473752z4z57z3 <= 4.86
s4 - s129 + 6.452074z4z129z2 <= 4.86
s4 - s172 + 6.499513z4z172z3 <= 4.86
s4 - s124 + 6.492324z4z124z2 <= 4.86
s4 - s100 + 6.490786z4z100z2 <= 4.86
s4 - s231 + 6.519844z4z231z2 <= 4.86
s4 - s175 + 6.518034z4z175z2 <= 4.86
s4 - s175 + 6.518034z4z175z3 <= 4.86
s266 - s30 + 6.127428z266z30z2 <= 4.78
s266 - s37 + 6.319736z266z37z2 <= 4.78
s266 - s276 + 6.270541z266z276z2 <= 4.78
s266 - s120 + 6.330133z266z120z2 <= 4.78
s266 - s48 + 6.386605z266z48z2 <= 4.78
s266 - s57 + 6.356991z266z57z2 <= 4.78
s266 - s129 + 6.336769z266z129z2 <= 4.78
s266 - s124 + 6.375772z266z124z2 <= 4.78
s266 - s100 + 6.375021z266z100z2 <= 4.78
s266 - s231 + 6.401690z266z231z2 <= 4.78
s266 - s175 + 6.400609z266z175z2 <= 4.78
s38 - s128 + 6.662780z38z128z1 <= 4.94
s38 - s148 + 6.518933z38z148z1 <= 4.94
s38 - s172 + 6.675091z38z172z1 <= 4.94
s38 - s231 + 6.696125z38z231z1 <= 4.94
s86 - s30 + 6.394840z86z30z2 <= 5.04
s86 - s37 + 6.593412z86z37z2 <= 5.04
s86 - s128 + 6.590178z86z128z1 <= 5.04
s86 - s148 + 6.462486z86z148z1 <= 5.04
s86 - s159 + 6.587903z86z159z1 <= 5.04
s86 - s276 + 6.537500z86z276z2 <= 5.04
s86 - s120 + 6.597067z86z120z2 <= 5.04
s86 - s48 + 6.653929z86z48z2 <= 5.04
s86 - s57 + 6.615498z86z57z2 <= 5.04
s86 - s129 + 6.594016z86z129z2 <= 5.04
s86 - s172 + 6.641157z86z172z1 <= 5.04
s86 - s124 + 6.634106z86z124z2 <= 5.04
s86 - s100 + 6.632678z86z100z2 <= 5.04
s86 - s231 + 6.661436z86z231z1 <= 5.04
s86 - s231 + 6.661436z86z231z2 <= 5.04
s86 - s175 + 6.659712z86z175z2 <= 5.04
s132 - s26 + 6.478178z132z26z3 <= 5.08
s132 - s30 + 6.539795z132z30z3 <= 5.08
s132 - s37 + 6.538834z132z37z3 <= 5.08
s132 - s53 + 6.457757z132z53z1 <= 5.08
s132 - s128 + 6.525744z132z128z1 <= 5.08
s132 - s148 + 6.575108z132z148z1 <= 5.08
s132 - s148 + 6.575108z132z148z3 <= 5.08
s132 - s159 + 6.481545z132z159z1 <= 5.08
s132 - s159 + 6.481545z132z159z3 <= 5.08
s132 - s276 + 6.590667z132z276z3 <= 5.08
s132 - s57 + 6.724266z132z57z3 <= 5.08
s132 - s172 + 6.732288z132z172z1 <= 5.08
s132 - s172 + 6.732288z132z172z3 <= 5.08
s132 - s231 + 6.740648z132z231z1 <= 5.08
s132 - s175 + 6.746651z132z175z3 <= 5.08
s283 - s26 + 6.419294z283z26z3 <= 5.03
s283 - s30 + 6.348887z283z30z3 <= 5.03
s283 - s37 + 6.543051z283z37z3 <= 5.03
s283 - s53 + 6.511781z283z53z1 <= 5.03
s283 - s128 + 6.539204z283z128z1 <= 5.03
s283 - s148 + 6.418143z283z148z1 <= 5.03
s283 - s148 + 6.418143z283z148z3 <= 5.03
s283 - s159 + 6.534884z283z159z1 <= 5.03
s283 - s159 + 6.534884z283z159z3 <= 5.03
s283 - s276 + 6.492026z283z276z3 <= 5.03
s283 - s57 + 6.577390z283z57z3 <= 5.03
s283 - s172 + 6.602323z283z172z1 <= 5.03
s283 - s172 + 6.602323z283z172z3 <= 5.03
s283 - s231 + 6.622188z283z231z1 <= 5.03
s283 - s175 + 6.621056z283z175z3 <= 5.03
s99 - s30 + 6.697838z99z30z3 <= 5.24
s99 - s37 + 6.678378z99z37z3 <= 5.24
s99 - s128 + 6.665121z99z128z1 <= 5.24
s99 - s148 + 6.727619z99z148z1 <= 5.24
s99 - s148 + 6.727619z99z148z3 <= 5.24
s99 - s159 + 6.619635z99z159z1 <= 5.24
s99 - s159 + 6.619635z99z159z3 <= 5.24
s99 - s276 + 6.737020z99z276z3 <= 5.24
s99 - s57 + 6.869559z99z57z3 <= 5.24
s99 - s172 + 6.875945z99z172z1 <= 5.24
s99 - s172 + 6.875945z99z172z3 <= 5.24
s99 - s231 + 6.883126z99z231z1 <= 5.24
s99 - s175 + 6.889549z99z175z3 <= 5.24
s290 - s26 + 6.359744z290z26z3 <= 5.11
s290 - s30 + 6.338379z290z30z3 <= 5.11
s290 - s37 + 6.482361z290z37z3 <= 5.11
s290 - s148 + 6.404913z290z148z3 <= 5.11
s290 - s159 + 6.457629z290z159z3 <= 5.11
s290 - s276 + 6.463880z290z276z3 <= 5.11
s290 - s57 + 6.580995z290z57z3 <= 5.11
s290 - s172 + 6.600680z290z172z3 <= 5.11
s290 - s175 + 6.619127z290z175z3 <= 5.11
s26 - s57 + 7.791042z26z57z3 <= 6.54
s26 - s172 + 7.803734z26z172z3 <= 6.54
s26 - s175 + 7.820396z26z175z3 <= 6.54
s30 - s48 + 8.199401z30z48z2 <= 6.94
s30 - s57 + 8.184132z30z57z2 <= 6.94
s30 - s57 + 8.184132z30z57z3 <= 6.94
s30 - s129 + 8.169879z30z129z2 <= 6.94
s30 - s172 + 8.205498z30z172z3 <= 6.94
s30 - s124 + 8.202721z30z124z2 <= 6.94
s30 - s100 + 8.204407z30z100z2 <= 6.94
s30 - s231 + 8.223471z30z231z2 <= 6.94
s30 - s175 + 8.224254z30z175z2 <= 6.94
s30 - s175 + 8.224254z30z175z3 <= 6.94
s37 - s48 + 7.939950z37z48z2 <= 6.83
s37 - s57 + 8.034505z37z57z2 <= 6.83
s37 - s57 + 8.034505z37z57z3 <= 6.83
s37 - s129 + 8.044683z37z129z2 <= 6.83
s37 - s172 + 8.033960z37z172z3 <= 6.83
s37 - s124 + 8.043437z37z124z2 <= 6.83
s37 - s100 + 8.051610z37z100z2 <= 6.83
s37 - s231 + 8.037632z37z231z2 <= 6.83
s37 - s175 + 8.044993z37z175z2 <= 6.83
s37 - s175 + 8.044993z37z175z3 <= 6.83
s53 - s172 + 7.821267z53z172z1 <= 6.54
s53 - s231 + 7.826744z53z231z1 <= 6.54
s128 - s172 + 8.007051z128z172z1 <= 6.79
s128 - s231 + 8.010907z128z231z1 <= 6.79
s148 - s57 + 8.086131z148z57z3 <= 6.91
s148 - s172 + 8.106072z148z172z1 <= 6.91
s148 - s172 + 8.106072z148z172z3 <= 6.91
s148 - s231 + 8.123437z148z231z1 <= 6.91
s148 - s175 + 8.124683z148z175z3 <= 6.91
s159 - s57 + 7.923734z159z57z3 <= 6.66
s159 - s172 + 7.924155z159z172z1 <= 6.66
s159 - s172 + 7.924155z159z172z3 <= 6.66
s159 - s231 + 7.927997z159z231z1 <= 6.66
s159 - s175 + 7.935358z159z175z3 <= 6.66
s276 - s48 + 8.006428z276z48z2 <= 6.89
s276 - s57 + 8.023998z276z57z2 <= 6.89
s276 - s57 + 8.023998z276z57z3 <= 6.89
s276 - s129 + 8.023998z276z129z2 <= 6.89
s276 - s172 + 8.035603z276z172z3 <= 6.89
s276 - s124 + 8.039071z276z124z2 <= 6.89
s276 - s100 + 8.044632z276z100z2 <= 6.89
s276 - s231 + 8.048465z276z231z2 <= 6.89
s276 - s175 + 8.052343z276z175z2 <= 6.89
s276 - s175 + 8.052343z276z175z3 <= 6.89
s120 - s48 + 8.096960z120z48z2 <= 7.04
s120 - s57 + 8.153920z120z57z2 <= 7.04
s120 - s129 + 8.165787z120z129z2 <= 7.04
s120 - s124 + 8.162928z120z124z2 <= 7.04
s120 - s100 + 8.170979z120z100z2 <= 7.04
s120 - s231 + 8.160185z120z231z2 <= 7.04
s120 - s175 + 8.166667z120z175z2 <= 7.04
s48 - s231 + 8.380353z48z231z2 <= 7.27
s48 - s175 + 8.389257z48z175z2 <= 7.27
s57 - s172 + 8.357488z57z172z3 <= 7.33
s57 - s124 + 8.348856z57z124z2 <= 7.33
s57 - s100 + 8.351082z57z100z2 <= 7.33
s57 - s231 + 8.378534z57z231z2 <= 7.33
s57 - s175 + 8.374722z57z175z2 <= 7.33
s57 - s175 + 8.374722z57z175z3 <= 7.33
s129 - s124 + 8.372164z129z124z2 <= 7.33
s129 - s100 + 8.368873z129z100z2 <= 7.33
s129 - s231 + 8.404535z129z231z2 <= 7.33
s129 - s175 + 8.399602z129z175z2 <= 7.33
s172 - s231 + 8.401082z172z231z1 <= 7.38
s172 - s175 + 8.398856z172z175z3 <= 7.38
s124 - s100 + 8.399428z124z100z2 <= 7.39
s124 - s231 + 8.423333z124z231z2 <= 7.39
s124 - s175 + 8.417487z124z175z2 <= 7.39
s100 - s175 + 8.433333z100z175z2 <= 7.40
s231 - s175 + 8.449429z231z175z2 <= 7.44

x95x57x3 - 1z95z57z3 <= 0
x95x172x1 - 1z95z172z1 <= 0
x95x172x3 - 1z95z172z3 <= 0
x95x231x1 - 1z95z231z1 <= 0
x95x175x3 - 1z95z175z3 <= 0
x267x57x2 - 1z267z57z2 <= 0
x267x129x2 - 2z267z129z2 <= 0
x267x124x2 - 2z267z124z2 <= 0
x267x100x2 - 2z267z100z2 <= 0
x267x231x2 - 1z267z231z2 <= 0
x267x175x2 - 1z267z175z2 <= 0
x113x57x2 - 1z113z57z2 <= 0
x113x129x2 - 2z113z129z2 <= 0
x113x124x2 - 2z113z124z2 <= 0
x113x100x2 - 2z113z100z2 <= 0
x113x231x2 - 1z113z231z2 <= 0
x113x175x2 - 1z113z175z2 <= 0
x222x57x2 - 1z222z57z2 <= 0
x222x129x2 - 2z222z129z2 <= 0
x222x124x2 - 2z222z124z2 <= 0
x222x100x2 - 2z222z100z2 <= 0
x222x231x2 - 1z222z231z2 <= 0
x222x175x2 - 1z222z175z2 <= 0
x262x26x3 - 2z262z26z3 <= 0
x262x30x3 - 1z262z30z3 <= 0
x262x37x3 - 1z262z37z3 <= 0
x262x53x1 - 2z262z53z1 <= 0
x262x128x1 - 2z262z128z1 <= 0
x262x148x1 - 1z262z148z1 <= 0
x262x148x3 - 1z262z148z3 <= 0
x262x159x1 - 1z262z159z1 <= 0
x262x159x3 - 1z262z159z3 <= 0
x262x276x3 - 1z262z276z3 <= 0
x262x57x3 - 1z262z57z3 <= 0
x262x172x1 - 1z262z172z1 <= 0
x262x172x3 - 1z262z172z3 <= 0
x262x231x1 - 1z262z231z1 <= 0
x262x175x3 - 1z262z175z3 <= 0
x4x26x3 - 2z4z26z3 <= 0
x4x30x2 - 1z4z30z2 <= 0
x4x30x3 - 1z4z30z3 <= 0
x4x37x2 - 1z4z37z2 <= 0
x4x37x3 - 1z4z37z3 <= 0
x4x148x3 - 1z4z148z3 <= 0
x4x159x3 - 1z4z159z3 <= 0
x4x276x2 - 1z4z276z2 <= 0
x4x276x3 - 1z4z276z3 <= 0
x4x120x2 - 2z4z120z2 <= 0
x4x48x2 - 2z4z48z2 <= 0
x4x57x2 - 1z4z57z2 <= 0
x4x57x3 - 1z4z57z3 <= 0
x4x129x2 - 2z4z129z2 <= 0
x4x172x3 - 1z4z172z3 <= 0
x4x124x2 - 2z4z124z2 <= 0
x4x100x2 - 2z4z100z2 <= 0
x4x231x2 - 1z4z231z2 <= 0
x4x175x2 - 1z4z175z2 <= 0
x4x175x3 - 1z4z175z3 <= 0
x266x30x2 - 1z266z30z2 <= 0
x266x37x2 - 1z266z37z2 <= 0
x266x276x2 - 1z266z276z2 <= 0
x266x120x2 - 2z266z120z2 <= 0
x266x48x2 - 2z266z48z2 <= 0
x266x57x2 - 1z266z57z2 <= 0
x266x129x2 - 2z266z129z2 <= 0
x266x124x2 - 2z266z124z2 <= 0
x266x100x2 - 2z266z100z2 <= 0
x266x231x2 - 1z266z231z2 <= 0
x266x175x2 - 1z266z175z2 <= 0
x38x128x1 - 2z38z128z1 <= 0
x38x148x1 - 1z38z148z1 <= 0
x38x172x1 - 1z38z172z1 <= 0
x38x231x1 - 1z38z231z1 <= 0
x86x30x2 - 1z86z30z2 <= 0
x86x37x2 - 1z86z37z2 <= 0
x86x128x1 - 2z86z128z1 <= 0
x86x148x1 - 1z86z148z1 <= 0
x86x159x1 - 1z86z159z1 <= 0
x86x276x2 - 1z86z276z2 <= 0
x86x120x2 - 2z86z120z2 <= 0
x86x48x2 - 2z86z48z2 <= 0
x86x57x2 - 1z86z57z2 <= 0
x86x129x2 - 2z86z129z2 <= 0
x86x172x1 - 1z86z172z1 <= 0
x86x124x2 - 2z86z124z2 <= 0
x86x100x2 - 2z86z100z2 <= 0
x86x231x1 - 1z86z231z1 <= 0
x86x231x2 - 1z86z231z2 <= 0
x86x175x2 - 1z86z175z2 <= 0
x132x26x3 - 2z132z26z3 <= 0
x132x30x3 - 1z132z30z3 <= 0
x132x37x3 - 1z132z37z3 <= 0
x132x53x1 - 2z132z53z1 <= 0
x132x128x1 - 2z132z128z1 <= 0
x132x148x1 - 1z132z148z1 <= 0
x132x148x3 - 1z132z148z3 <= 0
x132x159x1 - 1z132z159z1 <= 0
x132x159x3 - 1z132z159z3 <= 0
x132x276x3 - 1z132z276z3 <= 0
x132x57x3 - 1z132z57z3 <= 0
x132x172x1 - 1z132z172z1 <= 0
x132x172x3 - 1z132z172z3 <= 0
x132x231x1 - 1z132z231z1 <= 0
x132x175x3 - 1z132z175z3 <= 0
x283x26x3 - 2z283z26z3 <= 0
x283x30x3 - 1z283z30z3 <= 0
x283x37x3 - 1z283z37z3 <= 0
x283x53x1 - 2z283z53z1 <= 0
x283x128x1 - 2z283z128z1 <= 0
x283x148x1 - 1z283z148z1 <= 0
x283x148x3 - 1z283z148z3 <= 0
x283x159x1 - 1z283z159z1 <= 0
x283x159x3 - 1z283z159z3 <= 0
x283x276x3 - 1z283z276z3 <= 0
x283x57x3 - 1z283z57z3 <= 0
x283x172x1 - 1z283z172z1 <= 0
x283x172x3 - 1z283z172z3 <= 0
x283x231x1 - 1z283z231z1 <= 0
x283x175x3 - 1z283z175z3 <= 0
x99x30x3 - 1z99z30z3 <= 0
x99x37x3 - 1z99z37z3 <= 0
x99x128x1 - 2z99z128z1 <= 0
x99x148x1 - 1z99z148z1 <= 0
x99x148x3 - 1z99z148z3 <= 0
x99x159x1 - 1z99z159z1 <= 0
x99x159x3 - 1z99z159z3 <= 0
x99x276x3 - 1z99z276z3 <= 0
x99x57x3 - 1z99z57z3 <= 0
x99x172x1 - 1z99z172z1 <= 0
x99x172x3 - 1z99z172z3 <= 0
x99x231x1 - 1z99z231z1 <= 0
x99x175x3 - 1z99z175z3 <= 0
x290x26x3 - 2z290z26z3 <= 0
x290x30x3 - 1z290z30z3 <= 0
x290x37x3 - 1z290z37z3 <= 0
x290x148x3 - 1z290z148z3 <= 0
x290x159x3 - 1z290z159z3 <= 0
x290x276x3 - 1z290z276z3 <= 0
x290x57x3 - 1z290z57z3 <= 0
x290x172x3 - 1z290z172z3 <= 0
x290x175x3 - 1z290z175z3 <= 0
x26x57x3 - 1z26z57z3 <= 0
x26x172x3 - 1z26z172z3 <= 0
x26x175x3 - 1z26z175z3 <= 0
x26x0x3 <= 2
x30x48x2 - 2z30z48z2 <= 0
x30x57x2 - 1z30z57z2 <= 0
x30x57x3 - 1z30z57z3 <= 0
x30x129x2 - 2z30z129z2 <= 0
x30x172x3 - 1z30z172z3 <= 0
x30x124x2 - 2z30z124z2 <= 0
x30x100x2 - 2z30z100z2 <= 0
x30x231x2 - 1z30z231z2 <= 0
x30x175x2 - 1z30z175z2 <= 0
x30x175x3 - 1z30z175z3 <= 0
x30x0x2 <= 1
x30x0x3 <= 1
x37x48x2 - 2z37z48z2 <= 0
x37x57x2 - 1z37z57z2 <= 0
x37x57x3 - 1z37z57z3 <= 0
x37x129x2 - 2z37z129z2 <= 0
x37x172x3 - 1z37z172z3 <= 0
x37x124x2 - 2z37z124z2 <= 0
x37x100x2 - 2z37z100z2 <= 0
x37x231x2 - 1z37z231z2 <= 0
x37x175x2 - 1z37z175z2 <= 0
x37x175x3 - 1z37z175z3 <= 0
x37x0x2 <= 1
x37x0x3 <= 1
x53x172x1 - 1z53z172z1 <= 0
x53x231x1 - 1z53z231z1 <= 0
x53x0x1 <= 2
x128x172x1 - 1z128z172z1 <= 0
x128x231x1 - 1z128z231z1 <= 0
x128x0x1 <= 2
x148x57x3 - 1z148z57z3 <= 0
x148x172x1 - 1z148z172z1 <= 0
x148x172x3 - 1z148z172z3 <= 0
x148x231x1 - 1z148z231z1 <= 0
x148x175x3 - 1z148z175z3 <= 0
x148x0x1 <= 1
x148x0x3 <= 1
x159x57x3 - 1z159z57z3 <= 0
x159x172x1 - 1z159z172z1 <= 0
x159x172x3 - 1z159z172z3 <= 0
x159x231x1 - 1z159z231z1 <= 0
x159x175x3 - 1z159z175z3 <= 0
x159x0x1 <= 1
x159x0x3 <= 1
x276x48x2 - 2z276z48z2 <= 0
x276x57x2 - 1z276z57z2 <= 0
x276x57x3 - 1z276z57z3 <= 0
x276x129x2 - 2z276z129z2 <= 0
x276x172x3 - 1z276z172z3 <= 0
x276x124x2 - 2z276z124z2 <= 0
x276x100x2 - 2z276z100z2 <= 0
x276x231x2 - 1z276z231z2 <= 0
x276x175x2 - 1z276z175z2 <= 0
x276x175x3 - 1z276z175z3 <= 0
x276x0x2 <= 1
x276x0x3 <= 1
x120x48x2 - 2z120z48z2 <= 0
x120x57x2 - 1z120z57z2 <= 0
x120x129x2 - 2z120z129z2 <= 0
x120x124x2 - 2z120z124z2 <= 0
x120x100x2 - 2z120z100z2 <= 0
x120x231x2 - 1z120z231z2 <= 0
x120x175x2 - 1z120z175z2 <= 0
x120x0x2 <= 2
x48x231x2 - 1z48z231z2 <= 0
x48x175x2 - 1z48z175z2 <= 0
x48x0x2 <= 2
x57x172x3 - 1z57z172z3 <= 0
x57x124x2 - 2z57z124z2 <= 0
x57x100x2 - 2z57z100z2 <= 0
x57x231x2 - 1z57z231z2 <= 0
x57x175x2 - 1z57z175z2 <= 0
x57x175x3 - 1z57z175z3 <= 0
x57x0x2 <= 1
x57x0x3 <= 1
x129x124x2 - 2z129z124z2 <= 0
x129x100x2 - 2z129z100z2 <= 0
x129x231x2 - 1z129z231z2 <= 0
x129x175x2 - 1z129z175z2 <= 0
x129x0x2 <= 2
x172x231x1 - 1z172z231z1 <= 0
x172x175x3 - 1z172z175z3 <= 0
x172x0x1 <= 1
x172x0x3 <= 1
x124x100x2 - 2z124z100z2 <= 0
x124x231x2 - 1z124z231z2 <= 0
x124x175x2 - 1z124z175z2 <= 0
x124x0x2 <= 2
x100x175x2 - 1z100z175z2 <= 0
x100x0x2 <= 2
x231x175x2 - 1z231z175z2 <= 0
x231x0x1 <= 1
x231x0x2 <= 1
x175x0x2 <= 1
x175x0x3 <= 1

Bounds
s122 = 5.980900
s95 = 5.782542
s267 = 5.750000
s113 = 5.790000
s222 = 5.790000
s262 = 4.832470
s4 = 4.856050
s266 = 4.784240
s38 = 4.939700
s86 = 5.042010
s132 = 5.077290
s283 = 5.032800
s99 = 5.235910
s290 = 5.108790
6.000000 <= s26 <= 6.540000
6.000000 <= s30 <= 6.940000
6.000000 <= s37 <= 6.830000
6.000000 <= s53 <= 6.540000
6.000000 <= s128 <= 6.790000
6.000000 <= s148 <= 6.910000
6.000000 <= s159 <= 6.660000
6.000000 <= s276 <= 6.890000
6.040000 <= s120 <= 7.040000
6.270000 <= s48 <= 7.270000
6.330000 <= s57 <= 7.330000
6.330000 <= s129 <= 7.330000
6.380000 <= s172 <= 7.380000
6.390000 <= s124 <= 7.390000
6.400000 <= s100 <= 7.400000
6.440000 <= s231 <= 7.440000
6.450000 <= s175 <= 7.450000

General

x95x57x3 x95x172x1 x95x172x3 x95x231x1 x95x175x3 
x267x57x2 x267x129x2 x267x124x2 x267x100x2 x267x231x2 x267x175x2 
x113x57x2 x113x129x2 x113x124x2 x113x100x2 x113x231x2 x113x175x2 
x222x57x2 x222x129x2 x222x124x2 x222x100x2 x222x231x2 x222x175x2 
x262x26x3 x262x30x3 x262x37x3 x262x53x1 x262x128x1 x262x148x1 x262x148x3 x262x159x1 x262x159x3 x262x276x3 x262x57x3 x262x172x1 x262x172x3 x262x231x1 x262x175x3 
x4x26x3 x4x30x2 x4x30x3 x4x37x2 x4x37x3 x4x148x3 x4x159x3 x4x276x2 x4x276x3 x4x120x2 x4x48x2 x4x57x2 x4x57x3 x4x129x2 x4x172x3 x4x124x2 x4x100x2 x4x231x2 x4x175x2 x4x175x3 
x266x30x2 x266x37x2 x266x276x2 x266x120x2 x266x48x2 x266x57x2 x266x129x2 x266x124x2 x266x100x2 x266x231x2 x266x175x2 
x38x128x1 x38x148x1 x38x172x1 x38x231x1 
x86x30x2 x86x37x2 x86x128x1 x86x148x1 x86x159x1 x86x276x2 x86x120x2 x86x48x2 x86x57x2 x86x129x2 x86x172x1 x86x124x2 x86x100x2 x86x231x1 x86x231x2 x86x175x2 
x132x26x3 x132x30x3 x132x37x3 x132x53x1 x132x128x1 x132x148x1 x132x148x3 x132x159x1 x132x159x3 x132x276x3 x132x57x3 x132x172x1 x132x172x3 x132x231x1 x132x175x3 
x283x26x3 x283x30x3 x283x37x3 x283x53x1 x283x128x1 x283x148x1 x283x148x3 x283x159x1 x283x159x3 x283x276x3 x283x57x3 x283x172x1 x283x172x3 x283x231x1 x283x175x3 
x99x30x3 x99x37x3 x99x128x1 x99x148x1 x99x148x3 x99x159x1 x99x159x3 x99x276x3 x99x57x3 x99x172x1 x99x172x3 x99x231x1 x99x175x3 
x290x26x3 x290x30x3 x290x37x3 x290x148x3 x290x159x3 x290x276x3 x290x57x3 x290x172x3 x290x175x3 
x26x57x3 x26x172x3 x26x175x3 x26x0x3 
x30x48x2 x30x57x2 x30x57x3 x30x129x2 x30x172x3 x30x124x2 x30x100x2 x30x231x2 x30x175x2 x30x175x3 x30x0x2 x30x0x3 
x37x48x2 x37x57x2 x37x57x3 x37x129x2 x37x172x3 x37x124x2 x37x100x2 x37x231x2 x37x175x2 x37x175x3 x37x0x2 x37x0x3 
x53x172x1 x53x231x1 x53x0x1 
x128x172x1 x128x231x1 x128x0x1 
x148x57x3 x148x172x1 x148x172x3 x148x231x1 x148x175x3 x148x0x1 x148x0x3 
x159x57x3 x159x172x1 x159x172x3 x159x231x1 x159x175x3 x159x0x1 x159x0x3 
x276x48x2 x276x57x2 x276x57x3 x276x129x2 x276x172x3 x276x124x2 x276x100x2 x276x231x2 x276x175x2 x276x175x3 x276x0x2 x276x0x3 
x120x48x2 x120x57x2 x120x129x2 x120x124x2 x120x100x2 x120x231x2 x120x175x2 x120x0x2 
x48x231x2 x48x175x2 x48x0x2 
x57x172x3 x57x124x2 x57x100x2 x57x231x2 x57x175x2 x57x175x3 x57x0x2 x57x0x3 
x129x124x2 x129x100x2 x129x231x2 x129x175x2 x129x0x2 
x172x231x1 x172x175x3 x172x0x1 x172x0x3 
x124x100x2 x124x231x2 x124x175x2 x124x0x2 
x100x175x2 x100x0x2 
x231x175x2 x231x0x1 x231x0x2 
x175x0x2 x175x0x3 

Binaries
y26 y30 y37 y53 y128 y148 y159 y276 y120 y48 y57 y129 y172 y124 y100 y231 y175 

z95z57z3 z95z172z1 z95z172z3 z95z231z1 z95z175z3 
z267z57z2 z267z129z2 z267z124z2 z267z100z2 z267z231z2 z267z175z2 
z113z57z2 z113z129z2 z113z124z2 z113z100z2 z113z231z2 z113z175z2 
z222z57z2 z222z129z2 z222z124z2 z222z100z2 z222z231z2 z222z175z2 
z262z26z3 z262z30z3 z262z37z3 z262z53z1 z262z128z1 z262z148z1 z262z148z3 z262z159z1 z262z159z3 z262z276z3 z262z57z3 z262z172z1 z262z172z3 z262z231z1 z262z175z3 
z4z26z3 z4z30z2 z4z30z3 z4z37z2 z4z37z3 z4z148z3 z4z159z3 z4z276z2 z4z276z3 z4z120z2 z4z48z2 z4z57z2 z4z57z3 z4z129z2 z4z172z3 z4z124z2 z4z100z2 z4z231z2 z4z175z2 z4z175z3 
z266z30z2 z266z37z2 z266z276z2 z266z120z2 z266z48z2 z266z57z2 z266z129z2 z266z124z2 z266z100z2 z266z231z2 z266z175z2 
z38z128z1 z38z148z1 z38z172z1 z38z231z1 
z86z30z2 z86z37z2 z86z128z1 z86z148z1 z86z159z1 z86z276z2 z86z120z2 z86z48z2 z86z57z2 z86z129z2 z86z172z1 z86z124z2 z86z100z2 z86z231z1 z86z231z2 z86z175z2 
z132z26z3 z132z30z3 z132z37z3 z132z53z1 z132z128z1 z132z148z1 z132z148z3 z132z159z1 z132z159z3 z132z276z3 z132z57z3 z132z172z1 z132z172z3 z132z231z1 z132z175z3 
z283z26z3 z283z30z3 z283z37z3 z283z53z1 z283z128z1 z283z148z1 z283z148z3 z283z159z1 z283z159z3 z283z276z3 z283z57z3 z283z172z1 z283z172z3 z283z231z1 z283z175z3 
z99z30z3 z99z37z3 z99z128z1 z99z148z1 z99z148z3 z99z159z1 z99z159z3 z99z276z3 z99z57z3 z99z172z1 z99z172z3 z99z231z1 z99z175z3 
z290z26z3 z290z30z3 z290z37z3 z290z148z3 z290z159z3 z290z276z3 z290z57z3 z290z172z3 z290z175z3 
z26z57z3 z26z172z3 z26z175z3 
z30z48z2 z30z57z2 z30z57z3 z30z129z2 z30z172z3 z30z124z2 z30z100z2 z30z231z2 z30z175z2 z30z175z3 
z37z48z2 z37z57z2 z37z57z3 z37z129z2 z37z172z3 z37z124z2 z37z100z2 z37z231z2 z37z175z2 z37z175z3 
z53z172z1 z53z231z1 
z128z172z1 z128z231z1 
z148z57z3 z148z172z1 z148z172z3 z148z231z1 z148z175z3 
z159z57z3 z159z172z1 z159z172z3 z159z231z1 z159z175z3 
z276z48z2 z276z57z2 z276z57z3 z276z129z2 z276z172z3 z276z124z2 z276z100z2 z276z231z2 z276z175z2 z276z175z3 
z120z48z2 z120z57z2 z120z129z2 z120z124z2 z120z100z2 z120z231z2 z120z175z2 
z48z231z2 z48z175z2 
z57z172z3 z57z124z2 z57z100z2 z57z231z2 z57z175z2 z57z175z3 
z129z124z2 z129z100z2 z129z231z2 z129z175z2 
z172z231z1 z172z175z3 
z124z100z2 z124z231z2 z124z175z2 
z100z175z2 
z231z175z2 


End